solution status: optimal solution found
objective value:                      158222.62018367
d11(0,0)                                            1 	(obj:0)
d11(1,1)                                            1 	(obj:0)
d11(1,2)                                            1 	(obj:0)
d11(2,3)                                            1 	(obj:0)
d11(2,4)                                            1 	(obj:0)
d11(2,5)                                            1 	(obj:0)
d11(2,6)                                            1 	(obj:0)
d11(3,7)                                            1 	(obj:0)
d11(3,8)                                            1 	(obj:0)
d11(3,9)                                            1 	(obj:0)
d11(3,10)                                           1 	(obj:0)
d11(3,11)                                           1 	(obj:0)
d11(3,12)                                           1 	(obj:0)
d11(3,13)                                           1 	(obj:0)
d11(4,15)                                           1 	(obj:0)
d11(4,17)                                           1 	(obj:0)
d11(4,19)                                           1 	(obj:0)
d11(4,21)                                           1 	(obj:0)
d11(4,23)                                           1 	(obj:0)
d11(4,25)                                           1 	(obj:0)
d11(4,27)                                           1 	(obj:0)
d12(4,16)                                           1 	(obj:0)
d12(4,18)                                           1 	(obj:0)
d12(4,20)                                           1 	(obj:0)
d12(4,22)                                           1 	(obj:0)
d12(4,24)                                           1 	(obj:0)
d12(4,26)                                           1 	(obj:0)
d12(4,28)                                           1 	(obj:0)
d12(4,30)                                           1 	(obj:0)
d21(3,7)                                            1 	(obj:0)
d21(3,8)                                            1 	(obj:0)
d21(3,9)                                            1 	(obj:0)
d21(3,11)                                           1 	(obj:0)
d21(4,15)                                           1 	(obj:0)
d21(4,16)                                           1 	(obj:0)
d21(4,17)                                           1 	(obj:0)
d21(4,18)                                           1 	(obj:0)
d21(4,19)                                           1 	(obj:0)
d21(4,20)                                           1 	(obj:0)
d21(4,23)                                           1 	(obj:0)
d21(4,24)                                           1 	(obj:0)
y2(4,16)                             1385.48851144895 	(obj:0)
y2(4,18)                             1385.48851144895 	(obj:0)
y2(4,20)                             1385.48851144895 	(obj:0)
y2(4,22)                             1385.48851144895 	(obj:0)
y2(4,24)                             1385.48851144895 	(obj:0)
y2(4,26)                             1385.48851144895 	(obj:0)
y2(4,28)                             1385.48851144895 	(obj:0)
y2(4,30)                             1385.48851144895 	(obj:0)
STE(1,1)                             9933.75010111118 	(obj:0)
STE(0,0)                                        12600 	(obj:0)
STE(1,2)                                        11592 	(obj:0)
STE(2,3)                             6657.75010111118 	(obj:0)
STE(2,4)                                         8316 	(obj:0)
STE(2,5)                                         8316 	(obj:0)
STE(2,6)                             9974.24989888882 	(obj:0)
STE(3,7)                             3991.50020222234 	(obj:0)
STE(3,8)                             5649.75010111115 	(obj:0)
STE(3,9)                             5649.75010111115 	(obj:0)
STE(3,10)                                        7308 	(obj:0)
STE(3,11)                            5649.75010111115 	(obj:0)
STE(3,12)                            7308.00000000006 	(obj:0)
STE(3,13)                            7307.99999999997 	(obj:0)
STE(3,14)                            8966.24989888882 	(obj:0)
STE(4,15)                            2983.50020222234 	(obj:0)
STE(4,16)                            4299.71428809884 	(obj:0)
STE(4,17)                            4641.75010111116 	(obj:0)
STE(4,18)                            5957.96418698766 	(obj:0)
STE(4,19)                            4641.75010111116 	(obj:0)
STE(4,20)                            5957.96418698766 	(obj:0)
STE(4,21)                                        6300 	(obj:0)
STE(4,22)                            7616.21408587651 	(obj:0)
STE(4,23)                            4641.75010111116 	(obj:0)
STE(4,24)                            5957.96418698766 	(obj:0)
STE(4,25)                            6300.00000000012 	(obj:0)
STE(4,26)                            7616.21408587657 	(obj:0)
STE(4,27)                            6299.99999999997 	(obj:0)
STE(4,28)                            7616.21408587648 	(obj:0)
STE(4,29)                            7958.24989888882 	(obj:0)
STE(4,30)                            9274.46398476532 	(obj:0)
y1(3,11)                             1492.42490899996 	(obj:0)
y1(3,13)                             1492.42490899996 	(obj:0)
AVE(1)                               3265.91696791192 	(obj:0)
AVE(2)                               3332.74178563731 	(obj:0)
AVE(3)                               3444.11697932125 	(obj:0)
WB(4)                                3399.56511093778 	(obj:0)
AVE(4)                               3399.56511093778 	(obj:0)
WG(1)                                3265.91696791168 	(obj:10)
WG(2)                                3332.74178563731 	(obj:10)
WG(3)                                3444.11697932125 	(obj:10)
BG(1)                                930.375531067886 	(obj:10)
BG(2)                                1423.52529599538 	(obj:10)
BG(3)                                752.175519658342 	(obj:10)
BG(4)                                2673.40993877551 	(obj:10)
y1(1,1)                              1492.42490899994 	(obj:0)
y1(2,3)                                        2041.2 	(obj:0)
y1(2,4)                              548.775091000065 	(obj:0)
y1(2,5)                                        2041.2 	(obj:0)
y1(2,6)                              548.775091000065 	(obj:0)
y1(3,7)                              1492.42490899996 	(obj:0)
y1(3,9)                              1492.42490899996 	(obj:0)
